language Essence 1.3

letting blksize_delta be
        function(1 --> 8, 2 --> 8, 3 --> 8, 4 --> 8, 5 --> 8, 6 --> 9, 7 --> 8, 8 --> 8, 9 --> 8, 10 --> 8, 11 --> 8,
                 12 --> 8, 13 --> 8, 14 --> 8, 15 --> 8, 16 --> 8, 17 --> 8, 18 --> 8, 19 --> 8, 20 --> 8, 21 --> 8,
                 22 --> 8, 23 --> 8, 24 --> 8, 25 --> 8, 26 --> 8, 27 --> 9)
letting maxcars be
        function(1 --> 8, 2 --> 8, 3 --> 8, 4 --> 8, 5 --> 9, 6 --> 8, 7 --> 8, 8 --> 8, 9 --> 8, 10 --> 9, 11 --> 8,
                 12 --> 8, 13 --> 8, 14 --> 8, 15 --> 8, 16 --> 8, 17 --> 8, 18 --> 8, 19 --> 8, 20 --> 8, 21 --> 9,
                 22 --> 8, 23 --> 8, 24 --> 8, 25 --> 8, 26 --> 8, 27 --> 8)
letting n_cars be 215
letting n_classes be 27
letting n_options be 27
letting quantity be
        function(1 --> 6, 2 --> 6, 3 --> 6, 4 --> 6, 5 --> 6, 6 --> 6, 7 --> 6, 8 --> 23, 9 --> 6, 10 --> 6, 11 --> 6,
                 12 --> 6, 13 --> 6, 14 --> 6, 15 --> 6, 16 --> 6, 17 --> 6, 18 --> 32, 19 --> 6, 20 --> 6, 21 --> 6,
                 22 --> 6, 23 --> 6, 24 --> 6, 25 --> 15, 26 --> 6, 27 --> 7)
letting usage be
        relation((1, 22), (2, 27), (3, 5), (3, 8), (3, 11), (3, 15), (3, 27), (4, 8), (5, 14), (5, 23), (6, 3), (6, 6),
                 (6, 12), (6, 19), (6, 21), (6, 25), (7, 4), (7, 25), (8, 12), (8, 13), (8, 20), (8, 24), (9, 16),
                 (9, 21), (9, 27), (10, 3), (11, 5), (12, 3), (12, 12), (12, 15), (12, 16), (12, 21), (13, 12),
                 (13, 21), (14, 2), (14, 5), (14, 26), (15, 11), (15, 15), (15, 19), (15, 26), (16, 14), (16, 15),
                 (16, 17), (16, 27), (17, 9), (17, 24), (17, 26), (18, 1), (18, 3), (18, 22), (19, 4), (19, 6),
                 (19, 21), (19, 23), (20, 3), (20, 4), (20, 14), (20, 16), (21, 1), (21, 15), (21, 19), (21, 25),
                 (22, 9), (23, 7), (23, 26), (24, 5), (24, 22), (24, 26), (25, 5), (26, 14), (27, 10), (27, 18),
                 (27, 24))
$ Visualisation for usage
$  1 22
$  2 27
$  3  5
$  3  8
$  3 11
$  3 15
$  3 27
$  4  8
$  5 14
$  5 23
$  6  3
$  6  6
$  6 12
$  6 19
$  6 21
$  6 25
$  7  4
$  7 25
$  8 12
$  8 13
$  8 20
$  8 24
$  9 16
$  9 21
$  9 27
$ 10  3
$ 11  5
$ 12  3
$ 12 12
$ 12 15
$ 12 16
$ 12 21
$ 13 12
$ 13 21
$ 14  2
$ 14  5
$ 14 26
$ 15 11
$ 15 15
$ 15 19
$ 15 26
$ 16 14
$ 16 15
$ 16 17
$ 16 27
$ 17  9
$ 17 24
$ 17 26
$ 18  1
$ 18  3
$ 18 22
$ 19  4
$ 19  6
$ 19 21
$ 19 23
$ 20  3
$ 20  4
$ 20 14
$ 20 16
$ 21  1
$ 21 15
$ 21 19
$ 21 25
$ 22  9
$ 23  7
$ 23 26
$ 24  5
$ 24 22
$ 24 26
$ 25  5
$ 26 14
$ 27 10
$ 27 18
$ 27 24

